s td 31 6 35
b 1 4 9 24
b 2 5 20
b 3 1 14
b 4 10 18
b 5 22 27
b 6 25 32
b 7 16 27
b 8 16 21 30
b 9 9 31
b 10 15 33
b 11 12 15
b 12 12 24
b 13 23 34
b 14 29 35
b 15 6 21 29
b 16 13 21 28
b 17 19 21 28
b 18 20 24 29
b 19 1 23 30
b 20 9 24 29
b 21 8 21 28
b 22 1 21 30
b 23 8 26 32
b 24 1 2 9 26 29
b 25 2 3 9 26 29
b 26 2 3 9 10
b 27 1 8 9 21 26 29
b 28 8 9 17 29
b 29 29
b 30 7
b 31 11
1 20
1 30
1 31
2 18
3 24
4 26
5 7
6 23
7 8
8 22
9 24
10 11
11 12
12 20
13 19
14 29
15 27
16 21
17 21
18 20
19 22
20 24
21 27
22 27
23 27
24 29
24 25
24 27
25 26
27 28
